(set-logic BV) (define-fun origCir ((n254 Bool) (n270 Bool) (n277 Bool) (n232 Bool) (i30 Bool)) Bool (and (not (and (and (and n277 n270) n232) n254)) i30)) (synth-fun skel ((n254 Bool) (n270 Bool) (n277 Bool) (n232 Bool) (i30 Bool)) Bool) (declare-var n254 Bool) (declare-var n270 Bool) (declare-var n277 Bool) (declare-var n232 Bool) (declare-var i30 Bool) (constraint (= (origCir n254 n270 n277 n232 i30) (skel n254 n270 n277 n232 i30))) (check-synth)
